     Program PWSCF v.6.7MaX starts on 13Jun2023 at 21:27:43

     Waiting for input...
     Reading input from standard input

     Current dimensions of program PWSCF are:
     Max number of different atomic species (ntypx) = 10
     Max number of k-points (npk) =  40000
     Max angular momentum in pseudopotentials (lmaxx) =  3
     file Te.rel-pbe-n-rrkjus_psl.1.0.0.UPF: wavefunction(s)  5S renormalized
     file Sb.rel-pbe-n-rrkjus_psl.1.0.0.UPF: wavefunction(s)  5S renormalized

     Subspace diagonalization in iterative solution of the eigenvalue problem:
     a serial algorithm will be used

     Message from routine setup:
     using ibrav=0 with symmetry is DISCOURAGED, use correct ibrav instead

     bravais-lattice index     =            0
     lattice parameter (alat)  =       8.1879  a.u.
     unit-cell volume          =    4205.5056 (a.u.)^3
     number of atoms/cell      =           15
     number of atomic types    =            2
     number of electrons       =        84.00
     number of Kohn-Sham states=          100
     kinetic-energy cutoff     =      80.0000  Ry
     charge density cutoff     =     400.0000  Ry
     scf convergence threshold =      1.0E-07
     mixing beta               =       0.0700
     number of iterations used =            8  plain     mixing
     Exchange-correlation= PBE
                           (   1   4   3   4   0   0   0)
     Non magnetic calculation with spin-orbit

     celldm(1)=   8.187881  celldm(2)=   0.000000  celldm(3)=   0.000000
     celldm(4)=   0.000000  celldm(5)=   0.000000  celldm(6)=   0.000000

     crystal axes: (cart. coord. in units of alat)
               a(1) = (   1.000000   0.000000   0.000000 )
               a(2) = (  -0.500000   0.866026   0.000000 )
               a(3) = (   0.000000   0.000000   8.846530 )

     reciprocal axes: (cart. coord. in units 2 pi/alat)
               b(1) = (  1.000000  0.577350 -0.000000 )
               b(2) = (  0.000000  1.154700  0.000000 )
               b(3) = (  0.000000 -0.000000  0.113039 )

     PseudoPot. # 1 for Te read from file:
     /home/yehlab/espresso/pseudo/Te.rel-pbe-n-rrkjus_psl.1.0.0.UPF
     MD5 check sum: 7fd30b6833abd190471e4dcc2367351b
     Pseudo is Ultrasoft + core correction, Zval =  6.0
     Generated using &quot;atomic&quot; code by A. Dal Corso  v.6.3
     Using radial grid of 1245 points, 10 beta functions with:
                l(1) =   0
                l(2) =   0
                l(3) =   1
                l(4) =   1
                l(5) =   1
                l(6) =   1
                l(7) =   2
                l(8) =   2
                l(9) =   2
               l(10) =   2
     Q(r) pseudized with 0 coefficients

     PseudoPot. # 2 for Sb read from file:
     /home/yehlab/espresso/pseudo/Sb.rel-pbe-n-rrkjus_psl.1.0.0.UPF
     MD5 check sum: c1afc134568783a62b80e43a202109b2
     Pseudo is Ultrasoft + core correction, Zval =  5.0
     Generated using &quot;atomic&quot; code by A. Dal Corso  v.6.2.2
     Using radial grid of 1243 points, 10 beta functions with:
                l(1) =   0
                l(2) =   0
                l(3) =   1
                l(4) =   1
                l(5) =   1
                l(6) =   1
                l(7) =   2
                l(8) =   2
                l(9) =   2
               l(10) =   2
     Q(r) pseudized with 0 coefficients

     atomic species   valence    mass     pseudopotential
        Te             6.00   127.60000     Te( 1.00)
        Sb             5.00   121.76000     Sb( 1.00)

     12 Sym. Ops., with inversion, found ( 6 have fractional translation)

                                    s                        frac. trans.

      isym =  1     identity

 cryst.   s( 1) = (     1          0          0      )
                  (     0          1          0      )
                  (     0          0          1      )

 cart.    s( 1) = (  1.0000000  0.0000000  0.0000000 )
                  (  0.0000000  1.0000000  0.0000000 )
                  (  0.0000000  0.0000000  1.0000000 )

      isym =  2     180 deg rotation - cart. axis [1,0,0]

 cryst.   s( 2) = (     1          0          0      )    f =( -0.3333330 )
                  (    -1         -1          0      )       (  0.3333340 )
                  (     0          0         -1      )       (  0.0000005 )

 cart.    s( 2) = (  1.0000000  0.0000000  0.0000000 )    f =( -0.5000000 )
                  (  0.0000000 -1.0000000  0.0000000 )       (  0.2886758 )
                  (  0.0000000  0.0000000 -1.0000000 )       (  0.0000044 )

      isym =  3     120 deg rotation - cryst. axis [0,0,1]

[...]

      isym =  6     180 deg rotation - cryst. axis [1,1,0]

[...]

      isym =  7     inversion

[...]

      isym =  8     inv. 180 deg rotation - cart. axis [1,0,0]

 cryst.   s( 8) = (    -1          0          0      )
                  (     1          1          0      )
                  (     0          0          1      )

 cart.    s( 8) = ( -1.0000000  0.0000000  0.0000000 )
                  (  0.0000000  1.0000000  0.0000000 )
                  (  0.0000000  0.0000000  1.0000000 )

      isym =  9     inv. 120 deg rotation - cryst. axis [0,0,1]

 cryst.   s( 9) = (     0         -1          0      )    f =( -0.3333340 )
                  (     1          1          0      )       (  0.3333330 )
                  (     0          0         -1      )       (  0.0000005 )

 cart.    s( 9) = (  0.5000000  0.8660253  0.0000000 )    f =( -0.5000005 )
                  ( -0.8660255  0.5000000  0.0000000 )       (  0.2886749 )
                  (  0.0000000  0.0000000 -1.0000000 )       (  0.0000044 )

[...]

 cryst.   s(10) = (     1          1          0      )    f =( -0.3333330 )
                  (    -1          0          0      )       (  0.3333330 )
                  (     0          0         -1      )       (  0.0000005 )

 cart.    s(10) = (  0.5000000 -0.8660253  0.0000000 )    f =( -0.4999995 )
                  (  0.8660255  0.5000000  0.0000000 )       (  0.2886749 )
                  (  0.0000000  0.0000000 -1.0000000 )       (  0.0000044 )

[...]

 cryst.   s(11) = (     1          1          0      )
                  (     0         -1          0      )
                  (     0          0          1      )

 cart.    s(11) = (  0.5000000  0.8660253  0.0000000 )
                  (  0.8660255 -0.5000000  0.0000000 )
                  (  0.0000000  0.0000000  1.0000000 )

      isym = 12     inv. 180 deg rotation - cryst. axis [1,1,0]

 cryst.   s(12) = (     0         -1          0      )
                  (    -1          0          0      )
                  (     0          0          1      )

 cart.    s(12) = (  0.5000000 -0.8660253  0.0000000 )
                  ( -0.8660255 -0.5000000  0.0000000 )
                  (  0.0000000  0.0000000  1.0000000 )

   Cartesian axes

     site n.     atom                  positions (alat units)
         1           Te  tau(   1) = (   0.0000000   0.0000000   7.6884415  )
         2           Sb  tau(   2) = (   0.4999995   0.2886749   7.2936197  )
         3           Te  tau(   3) = (   0.0000000   0.5773497   6.8349907  )
         4           Sb  tau(   4) = (   0.0000000   0.0000000   6.3763617  )
         5           Te  tau(   5) = (   0.4999995   0.2886749   5.9815398  )
         6           Te  tau(   6) = (   0.0000000   0.5773497   5.2767118  )
         7           Sb  tau(   7) = (   0.0000000   0.0000000   4.8818899  )
         8           Te  tau(   8) = (   0.4999995   0.2886749   4.4232607  )
         9           Sb  tau(   9) = (   0.0000000   0.5773497   3.9646317  )
        10           Te  tau(  10) = (   0.0000000   0.0000000   3.5698099  )
        11           Te  tau(  11) = (   0.4999995   0.2886749   2.8649819  )
        12           Sb  tau(  12) = (   0.0000000   0.5773497   2.4701600  )
        13           Te  tau(  13) = (   0.0000000   0.0000000   2.0115310  )
        14           Sb  tau(  14) = (   0.4999995   0.2886749   1.5529062  )
        15           Te  tau(  15) = (   0.0000000   0.5773497   1.1580843  )

   Crystallographic axes

     site n.     atom                  positions (cryst. coord.)
         1           Te  tau(   1) = (  0.0000000  0.0000000  0.8690912  )
         2           Sb  tau(   2) = (  0.6666660  0.3333330  0.8244611  )
         3           Te  tau(   3) = (  0.3333330  0.6666660  0.7726182  )
         4           Sb  tau(   4) = (  0.0000000  0.0000000  0.7207754  )
         5           Te  tau(   5) = (  0.6666660  0.3333330  0.6761453  )
         6           Te  tau(   6) = (  0.3333330  0.6666660  0.5964725  )
         7           Sb  tau(   7) = (  0.0000000  0.0000000  0.5518423  )
         8           Te  tau(   8) = (  0.6666660  0.3333330  0.4999995  )
         9           Sb  tau(   9) = (  0.3333330  0.6666660  0.4481567  )
        10           Te  tau(  10) = (  0.0000000  0.0000000  0.4035266  )
        11           Te  tau(  11) = (  0.6666660  0.3333330  0.3238537  )
        12           Sb  tau(  12) = (  0.3333330  0.6666660  0.2792236  )
        13           Te  tau(  13) = (  0.0000000  0.0000000  0.2273808  )
        14           Sb  tau(  14) = (  0.6666660  0.3333330  0.1755384  )
        15           Te  tau(  15) = (  0.3333330  0.6666660  0.1309083  )

     number of k points=     4  Gaussian smearing, width (Ry)=  0.0100
                       cart. coord. in units 2pi/alat
        k(    1) = (   0.0000000   0.0000000   0.0000000), wk =   0.0625000
        k(    2) = (   0.0000000   0.2886751   0.0000000), wk =   0.3750000
        k(    3) = (   0.0000000  -0.5773502   0.0000000), wk =   0.1875000
        k(    4) = (   0.2500000   0.4330126   0.0000000), wk =   0.3750000

                       cryst. coord.
        k(    1) = (   0.0000000   0.0000000   0.0000000), wk =   0.0625000
        k(    2) = (   0.0000000   0.2500000   0.0000000), wk =   0.3750000
        k(    3) = (   0.0000000  -0.5000000   0.0000000), wk =   0.1875000
        k(    4) = (   0.2500000   0.2500000   0.0000000), wk =   0.3750000

     Initial potential from superposition of free atoms

     starting charge   83.99453, renormalised to   84.00000

     negative rho (up, down):  2.324E-07 0.000E+00
     Starting wfcs are  120 randomized atomic wfcs

     Self-consistent Calculation

     iteration #  1     ecut=    80.00 Ry     beta= 0.07
     Davidson diagonalization with overlap
     ethr =  1.00E-02,  avg # of iterations =  2.2

     Threshold (ethr) on eigenvalues was too large:
     Diagonalizing with lowered threshold

     Davidson diagonalization with overlap
     ethr =  3.22E-04,  avg # of iterations =  4.2

     negative rho (up, down):  1.246E-07 0.000E+00

     total energy              =    -376.56397728 Ry
     estimated scf accuracy    <       0.23211328 Ry

[...]

     negative rho (up, down):  2.090E-08 0.000E+00

[...]

     total energy              =    -376.55115512 Ry
     estimated scf accuracy    <       0.00000174 Ry

     iteration # 33     ecut=    80.00 Ry     beta= 0.07
     Davidson diagonalization with overlap
     ethr =  1.97E-09,  avg # of iterations =  6.0

     End of self-consistent calculation

          k = 0.0000 0.0000 0.0000 ( 50865 PWs)   bands (ev):

    -9.0677  -9.0677  -9.0008  -9.0008  -8.9735  -8.9735  -8.5748  -8.5748
    -8.4499  -8.4499  -8.3844  -8.3844  -7.5210  -7.5210  -7.3925  -7.3925
    -7.3256  -7.3256  -4.8627  -4.8627  -4.6828  -4.6828  -4.5385  -4.5385
    -3.4065  -3.4065  -3.2171  -3.2171  -3.0882  -3.0882   0.8365   0.8365
     1.0448   1.0448   1.2559   1.2559   1.5133   1.5133   1.6576   1.6576
     1.7388   1.7388   1.7607   1.7607   1.8530   1.8530   1.9967   1.9967
     2.1292   2.1292   2.1489   2.1489   2.1761   2.1761   2.1788   2.1788
     2.1875   2.1875   2.3009   2.3009   2.3089   2.3089   2.3220   2.3220
     2.3989   2.3989   2.4183   2.4183   2.5422   2.5422   2.8910   2.8910
     2.9048   2.9048   2.9746   2.9746   2.9792   2.9792   3.0009   3.0009
     3.4586   3.4586   3.6826   3.6826   3.7651   3.7651   3.9140   3.9140
     3.9687   3.9687   4.3332   4.3332   4.4817   4.4817   4.6045   4.6045
     4.6211   4.6212   4.7315   4.7315

     occupation numbers
     1.0000   1.0000   1.0000   1.0000   1.0000   1.0000   1.0000   1.0000
     1.0000   1.0000   1.0000   1.0000   1.0000   1.0000   1.0000   1.0000
     1.0000   1.0000   1.0000   1.0000   1.0000   1.0000   1.0000   1.0000
     1.0000   1.0000   1.0000   1.0000   1.0000   1.0000   1.0000   1.0000
     1.0000   1.0000   1.0000   1.0000   1.0000   1.0000   1.0000   1.0000
     1.0000   1.0000   1.0000   1.0000   1.0000   1.0000   1.0000   1.0000
     1.0000   1.0000   1.0000   1.0000   1.0000   1.0000   1.0000   1.0000
     1.0000   1.0000   1.0000   1.0000   1.0000   1.0000   1.0000   1.0000
     1.0000   1.0000   1.0000   1.0000   1.0000   1.0000   1.0000   1.0000
     1.0000   1.0000   1.0000   1.0000   1.0000   1.0000   1.0000   1.0000
     0.9987   0.9987   0.7502   0.7502   0.4275   0.4275   0.0418   0.0418
     0.0108   0.0108   0.0000   0.0000   0.0000   0.0000   0.0000   0.0000
     0.0000   0.0000   0.0000   0.0000

[...]

          k = 0.2500 0.4330 0.0000 ( 50758 PWs)   bands (ev):

    -7.6226  -7.6226  -7.5629  -7.5629  -7.5404  -7.5404  -7.3546  -7.3546
    -7.2580  -7.2579  -7.2229  -7.2229  -6.9765  -6.9765  -6.9061  -6.9059
    -6.8967  -6.8965  -5.4103  -5.4102  -5.3729  -5.3716  -5.3699  -5.3686
    -5.2651  -5.2651  -5.2235  -5.2224  -5.2214  -5.2203  -1.0078  -1.0078
    -0.9400  -0.9398  -0.8708  -0.8704  -0.8637  -0.8633  -0.7878  -0.7873
    -0.7602  -0.7598  -0.2044  -0.2044  -0.0031  -0.0029   0.0664   0.0665
     0.1033   0.1040   0.1349   0.1357   0.2840   0.2842   0.3080   0.3088
     0.4386   0.4389   0.5540   0.5541   0.9551   0.9553   1.2036   1.2037
     1.3904   1.3905   1.9395   1.9395   2.1327   2.1328   2.2983   2.2985
     2.5215   2.5215   2.6612   2.6615   2.7716   2.7726   2.9347   2.9358
     3.0573   3.0576   3.1587   3.1588   4.8838   4.8839   4.9363   4.9363
     4.9518   4.9519   5.1098   5.1102   5.2180   5.2185   5.3918   5.3919
     5.6422   5.6425   5.7641   5.7645

     occupation numbers
     1.0000   1.0000   1.0000   1.0000   1.0000   1.0000   1.0000   1.0000
     1.0000   1.0000   1.0000   1.0000   1.0000   1.0000   1.0000   1.0000
     1.0000   1.0000   1.0000   1.0000   1.0000   1.0000   1.0000   1.0000
     1.0000   1.0000   1.0000   1.0000   1.0000   1.0000   1.0000   1.0000
     1.0000   1.0000   1.0000   1.0000   1.0000   1.0000   1.0000   1.0000
     1.0000   1.0000   1.0000   1.0000   1.0000   1.0000   1.0000   1.0000
     1.0000   1.0000   1.0000   1.0000   1.0000   1.0000   1.0000   1.0000
     1.0000   1.0000   1.0000   1.0000   1.0000   1.0000   1.0000   1.0000
     1.0000   1.0000   1.0000   1.0000   1.0000   1.0000   1.0000   1.0000
     1.0000   1.0000   1.0000   1.0000   1.0000   1.0000   1.0000   1.0000
     1.0000   1.0000   1.0000   1.0000   0.0000   0.0000   0.0000   0.0000
     0.0000   0.0000   0.0000   0.0000   0.0000   0.0000   0.0000   0.0000
     0.0000   0.0000   0.0000   0.0000

     the Fermi energy is     3.7475 ev

!    total energy              =    -376.55115551 Ry
     estimated scf accuracy    <       0.00000006 Ry
     smearing contrib. (-TS)   =      -0.00117604 Ry
     internal energy E=F+TS    =    -376.54997947 Ry

     The total energy is F=E-TS. E is the sum of the following terms:
     one-electron contribution =    -617.51836219 Ry
     hartree contribution      =     341.31762395 Ry
     xc contribution           =    -222.13274578 Ry
     ewald contribution        =     121.78350455 Ry

     convergence has been achieved in  33 iterations

     Writing output data file ./tmp/Sb2Te3.save/

     General routines

     Parallel routines

   This run was terminated on:  22:40:24  13Jun2023

   JOB DONE.